
Gurobi 9.5.1 (linux64) logging started Tue 16 Aug 2022 06:44:07 PM MST

Set parameter LogFile to value "/home/local/ASUAD/kmajd1/NNRepLayer_v2/demos/walking_example/dynamic_constraint/repair_net/logs/opt_log_multi_0.log"
Gurobi Optimizer version 9.5.1 build v9.5.1rc2 (linux64)
Thread count: 48 physical cores, 96 logical processors, using up to 48 threads
Optimize a model with 18150 rows, 11587 columns and 169702 nonzeros
Model fingerprint: 0x7310a9d6
Model has 162 quadratic objective terms
Variable types: 6403 continuous, 5184 integer (5184 binary)
Coefficient statistics:
  Matrix range     [2e-03, 6e+01]
  Objective range  [6e-03, 2e+00]
  QObjective range [1e-01, 1e-01]
  Bounds range     [9e-03, 3e+02]
  RHS range        [1e-04, 6e+01]

Concurrent MIP optimizer: 3 concurrent instances (16 threads per instance)

Presolve removed 388 rows and 32 columns
Presolve time: 0.32s
Presolved: 17762 rows, 11555 columns, 169250 nonzeros
Presolved model has 162 quadratic objective terms
Variable types: 6371 continuous, 5184 integer (5184 binary)
Root relaxation presolve removed 5184 rows and 5184 columns
Root relaxation presolved: 12578 rows, 6371 columns, 153698 nonzeros
Root relaxation presolved model has 162 quadratic objective terms


Root relaxation: objective 2.074533e+01, 7419 iterations, 0.63 seconds (1.17 work units)

    Nodes    |    Current Node    |     Objective Bounds      |     Work
 Expl Unexpl |  Obj  Depth IntInf | Incumbent    BestBd   Gap | It/Node Time

     0     0      -    -    -              -   20.74533      -     -    1s
     0     0      -    -    -              -   20.74533      -     -    4s
     0     2      -    -    -              -   20.74533      -     -   12s
   223   246      -    -    -              -   20.74533      -     -   15s
  1933  2029      -    -    -              -   20.74533      -     -   20s
  4040  4225      -    -    -              -   20.74533      -     -   25s
  6234  6507      -    -    -              -   20.74533      -     -   30s
  8714  8991      -    -    -              -   20.74533      -     -   35s
 10445 10445      -    -    -              -   20.74533      -     -   45s

Instance 1 was solved

Explored 10446 nodes (369977 simplex iterations) in 69.88 seconds (92.60 work units)
Thread count was 16 (of 96 available processors)

Solution count 5: 33.8989 49.4534 49.9362 ... 50.0142 

Optimal solution found (tolerance 4.00e-01)
Warning: max constraint violation (4.5145e-06) exceeds tolerance
Best objective 3.389889834898e+01, best bound 2.074532775177e+01, gap 38.8024%
